1591
32 28 85 76 37 48 80 75 52 14 92 66 78 81 46 57 50 93 86 40 60 58 13 2 90 22 41 62 1 68 12 61 16 72 36 49 9 70 95 54 5 15 38 17 19 65 94 87 3 77 35 71 73 98 83 27 26 6 91 18 31 7 53 84 30 88 47 39 56 33 10 74 79 23 4 59 51 11 45 89 55 63 64 99 21 29 97 42 20 43 69 67 34 8 24 25 44 96 82 
